words_easy_train/words_670_SAT.qaiger
aag 53 16 0 1 37
32
2
14
16
26
22
24
10
28
18
4
30
20
8
12
6
107
34 20 18
36 34 22
38 36 24
40 39 27
42 31 29
44 42 40
46 45 33
48 37 25
50 49 39
52 50 14
54 51 15
56 55 53
58 57 47
60 38 26
62 61 17
64 30 28
66 64 63
68 67 32
70 61 41
72 71 16
74 35 23
76 75 37
78 77 13
80 76 12
82 81 79
84 20 11
86 21 10
88 87 85
90 89 19
92 18 8
94 88 9
96 95 93
98 96 91
100 98 83
102 100 73
104 102 69
106 104 58
i0 2 y1[7]
i1 1 x1[0]
i2 1 x1[6]
i3 1 x1[7]
i4 2 y1[4]
i5 2 y1[2]
i6 2 y1[3]
i7 1 x1[4]
i8 2 y1[5]
i9 2 y1[0]
i10 1 x1[1]
i11 2 y1[6]
i12 2 y1[1]
i13 1 x1[3]
i14 1 x1[5]
i15 1 x1[2]
o0 bool[0]
c
simplified
  !=
    >> 3
      1 x1
    add
      1
      2 y1
