words_easy_train/words_670_SAT.qaiger.qdimacs
p cnf 53 112
a 1 2 3 4 5 6 7 8 0
e 9 10 11 12 13 14 15 16 17 18 19 20 21 22 23 24 25 26 27 28 29 30 31 32 33 34 35 36 37 38 39 40 41 42 43 44 45 46 47 48 49 50 51 52 53 0
-10 -9 17 0
10 -17 0
9 -17 0
-17 -11 18 0
17 -18 0
11 -18 0
-18 -12 19 0
18 -19 0
12 -19 0
19 13 20 0
-19 -20 0
-13 -20 0
15 14 21 0
-15 -21 0
-14 -21 0
-21 -20 22 0
21 -22 0
20 -22 0
22 16 23 0
-22 -23 0
-16 -23 0
18 12 24 0
-18 -24 0
-12 -24 0
24 19 25 0
-24 -25 0
-19 -25 0
-25 -7 26 0
25 -26 0
7 -26 0
25 7 27 0
-25 -27 0
-7 -27 0
27 26 28 0
-27 -28 0
-26 -28 0
28 23 29 0
-28 -29 0
-23 -29 0
-19 -13 30 0
19 -30 0
13 -30 0
30 8 31 0
-30 -31 0
-8 -31 0
-15 -14 32 0
15 -32 0
14 -32 0
-32 31 33 0
32 -33 0
-31 -33 0
33 -16 34 0
-33 -34 0
16 -34 0
30 20 35 0
-30 -35 0
-20 -35 0
35 -8 36 0
-35 -36 0
8 -36 0
17 11 37 0
-17 -37 0
-11 -37 0
37 18 38 0
-37 -38 0
-18 -38 0
38 6 39 0
-38 -39 0
-6 -39 0
-38 -6 40 0
38 -40 0
6 -40 0
40 39 41 0
-40 -41 0
-39 -41 0
-10 5 42 0
10 -42 0
-5 -42 0
10 -5 43 0
-10 -43 0
5 -43 0
43 42 44 0
-43 -44 0
-42 -44 0
44 9 45 0
-44 -45 0
-9 -45 0
-9 -4 46 0
9 -46 0
4 -46 0
-44 4 47 0
44 -47 0
-4 -47 0
47 46 48 0
-47 -48 0
-46 -48 0
-48 45 49 0
48 -49 0
-45 -49 0
-49 41 50 0
49 -50 0
-41 -50 0
-50 36 51 0
50 -51 0
-36 -51 0
-51 34 52 0
51 -52 0
-34 -52 0
-52 -29 53 0
52 -53 0
29 -53 0
-53 0
